NAME : kroB100-C-3-1-a__bsl_same_priority_ls__27761.tour
COMMENT : Length = 27761.000
COMMENT : Generated by compare_sota_instances.py for bsl_same_priority_ls
TYPE : TOUR
DIMENSION : 100
TOUR_SECTION
46
1
95
98
12
90
21
68
10
53
70
39
40
67
5
62
26
69
75
100
56
81
79
47
23
22
88
72
37
65
80
20
38
30
49
86
73
85
93
11
3
28
91
97
99
8
29
76
59
32
71
27
61
35
66
4
83
60
74
57
94
9
25
34
7
84
58
54
52
43
89
87
6
33
15
51
48
31
63
82
64
14
42
2
13
78
17
41
44
19
92
96
36
45
18
24
16
77
55
50
-1
EOF
